c instance by G2
c solution = 11000010011
c Known solution cost is 565 
p cnf 11 30
w 15 81 32 62 8 97 71 34 81 29 55
1 -9 -2 0
8 6 -5 0
9 11 -10 0
-4 6 -7 0
5 1 -2 0
-7 4 -3 0
-3 10 -5 0
-7 -4 -1 0
-9 6 -2 0
4 2 6 0
-6 -1 3 0
5 -2 -9 0
-4 -8 10 0
-9 7 1 0
-11 7 8 0
-6 -10 2 0
-8 -7 5 0
-4 3 -11 0
-8 -2 10 0
8 11 -5 0
8 7 -4 0
11 4 -5 0
11 -3 -4 0
-10 5 11 0
-7 -10 -6 0
2 1 -5 0
6 -5 -11 0
-10 8 -4 0
9 -7 10 0
2 -6 -7 0
